nRows = 9;
nCols = 10;

g = [
	[0,0,0,0,0,0,0,0,0,0],
	[0,0,0,0,1,1,1,1,1,0],
	[0,0,0,0,1,1,1,1,1,0],
	[0,1,1,1,1,1,1,1,1,0],
	[0,1,1,1,1,1,1,1,1,0],
	[0,1,1,1,1,1,1,1,1,0],
	[0,1,1,1,1,1,1,0,0,0],
	[0,1,1,1,1,1,1,0,0,0],
	[0,0,0,0,0,0,0,0,0,0]
];

nRectangle = 3;
r=<1,2,3>;